30
1 0 8
2 0 2
2 1 3
3 0 9
3 1 1
3 2 6
4 0 1
4 1 3
4 2 5
4 3 9
5 0 6
5 1 7
5 2 8
5 3 3
5 4 6
6 0 9
6 1 8
6 2 9
6 3 1
6 4 6
6 5 7
7 0 5
7 1 7
7 2 5
7 3 7
7 4 5
7 5 10
7 6 6
8 0 10
8 1 9
8 2 3
8 3 6
8 4 7
8 5 10
8 6 6
8 7 5
9 0 1
9 1 6
9 2 6
9 3 1
9 4 7
9 5 9
9 6 8
9 7 2
9 8 4
10 0 3
10 1 4
10 2 7
10 3 1
10 4 4
10 5 4
10 6 7
10 7 5
10 8 2
10 9 10
11 0 2
11 1 9
11 2 5
11 3 1
11 4 2
11 5 2
11 6 5
11 7 1
11 8 8
11 9 1
11 10 8
12 0 7
12 1 8
12 2 6
12 3 5
12 4 5
12 5 3
12 6 5
12 7 10
12 8 2
12 9 5
12 10 8
12 11 10
13 0 6
13 1 10
13 2 10
13 3 8
13 4 6
13 5 1
13 6 7
13 7 2
13 8 3
13 9 2
13 10 7
13 11 7
13 12 4
14 0 1
14 1 6
14 2 4
14 3 6
14 4 5
14 5 7
14 6 6
14 7 9
14 8 6
14 9 8
14 10 6
14 11 7
14 12 4
14 13 6
15 0 1
15 1 2
15 2 6
15 3 1
15 4 4
15 5 1
15 6 3
15 7 4
15 8 7
15 9 5
15 10 4
15 11 2
15 12 3
15 13 4
15 14 4
16 0 2
16 1 10
16 2 10
16 3 10
16 4 7
16 5 9
16 6 4
16 7 7
16 8 9
16 9 9
16 10 3
16 11 7
16 12 5
16 13 7
16 14 3
16 15 6
17 0 6
17 1 10
17 2 8
17 3 1
17 4 1
17 5 4
17 6 5
17 7 2
17 8 10
17 9 3
17 10 2
17 11 9
17 12 10
17 13 7
17 14 10
17 15 1
17 16 2
18 0 10
18 1 1
18 2 10
18 3 1
18 4 9
18 5 6
18 6 3
18 7 9
18 8 5
18 9 6
18 10 2
18 11 3
18 12 3
18 13 6
18 14 1
18 15 9
18 16 5
18 17 5
19 0 5
19 1 2
19 2 5
19 3 6
19 4 4
19 5 9
19 6 5
19 7 8
19 8 8
19 9 9
19 10 7
19 11 3
19 12 2
19 13 7
19 14 7
19 15 3
19 16 5
19 17 1
19 18 9
20 0 4
20 1 8
20 2 2
20 3 2
20 4 10
20 5 5
20 6 7
20 7 6
20 8 8
20 9 2
20 10 8
20 11 7
20 12 4
20 13 8
20 14 5
20 15 9
20 16 2
20 17 2
20 18 3
20 19 6
21 0 1
21 1 1
21 2 10
21 3 2
21 4 5
21 5 2
21 6 9
21 7 5
21 8 8
21 9 9
21 10 3
21 11 7
21 12 7
21 13 10
21 14 2
21 15 3
21 16 4
21 17 5
21 18 10
21 19 1
21 20 2
22 0 6
22 1 7
22 2 1
22 3 7
22 4 10
22 5 2
22 6 1
22 7 3
22 8 4
22 9 3
22 10 2
22 11 10
22 12 8
22 13 8
22 14 3
22 15 3
22 16 6
22 17 6
22 18 10
22 19 3
22 20 3
22 21 5
23 0 8
23 1 9
23 2 5
23 3 9
23 4 4
23 5 6
23 6 8
23 7 9
23 8 1
23 9 5
23 10 2
23 11 3
23 12 6
23 13 2
23 14 7
23 15 2
23 16 6
23 17 9
23 18 6
23 19 2
23 20 8
23 21 5
23 22 4
24 0 3
24 1 5
24 2 3
24 3 9
24 4 10
24 5 5
24 6 8
24 7 1
24 8 10
24 9 3
24 10 3
24 11 5
24 12 7
24 13 2
24 14 3
24 15 8
24 16 3
24 17 3
24 18 8
24 19 8
24 20 5
24 21 10
24 22 5
24 23 1
25 0 3
25 1 5
25 2 10
25 3 1
25 4 6
25 5 3
25 6 1
25 7 5
25 8 10
25 9 3
25 10 7
25 11 6
25 12 4
25 13 2
25 14 8
25 15 6
25 16 4
25 17 6
25 18 10
25 19 5
25 20 6
25 21 6
25 22 4
25 23 10
25 24 8
26 0 1
26 1 9
26 2 8
26 3 3
26 4 9
26 5 10
26 6 1
26 7 10
26 8 9
26 9 8
26 10 3
26 11 8
26 12 7
26 13 6
26 14 6
26 15 4
26 16 1
26 17 6
26 18 8
26 19 4
26 20 1
26 21 4
26 22 6
26 23 5
26 24 7
26 25 7
27 0 6
27 1 4
27 2 9
27 3 4
27 4 7
27 5 4
27 6 1
27 7 4
27 8 4
27 9 8
27 10 8
27 11 8
27 12 6
27 13 10
27 14 2
27 15 4
27 16 1
27 17 4
27 18 8
27 19 6
27 20 7
27 21 1
27 22 8
27 23 5
27 24 9
27 25 3
27 26 4
28 0 5
28 1 4
28 2 5
28 3 2
28 4 6
28 5 9
28 6 1
28 7 4
28 8 9
28 9 10
28 10 1
28 11 1
28 12 6
28 13 10
28 14 5
28 15 5
28 16 6
28 17 5
28 18 3
28 19 1
28 20 9
28 21 3
28 22 1
28 23 1
28 24 5
28 25 5
28 26 4
28 27 1
29 0 8
29 1 9
29 2 2
29 3 5
29 4 10
29 5 8
29 6 1
29 7 7
29 8 2
29 9 10
29 10 6
29 11 7
29 12 3
29 13 10
29 14 6
29 15 6
29 16 4
29 17 2
29 18 6
29 19 10
29 20 1
29 21 1
29 22 8
29 23 4
29 24 6
29 25 4
29 26 3
29 27 8
29 28 7
